minimize
obj: 1 x_1_ + 1 x_2_ + 1 x_3_ + 1 x_4_ + 1 x_5_
subject to
c1_1: 1 t_1,1_ - 1 y_1,1_ <= 0
c2_1: 1 t_1,2_ - 1 y_1,1_ - 1 y_1,2_ <= 0
c3_1: 1 t_1,3_ - 1 y_1,2_ - 1 y_1,3_ <= 0
c4_1: 1 t_1,4_ - 1 y_1,3_ - 1 y_1,4_ <= 0
c5_1: 1 t_1,5_ - 1 y_1,4_ - 1 y_1,5_ <= 0
c6_1: 1 t_1,6_ - 1 y_1,5_ - 1 y_1,6_ <= 0
c7_1: 1 t_1,7_ - 1 y_1,6_ - 1 y_1,7_ <= 0
c8_1: 1 t_1,8_ - 1 y_1,7_ - 1 y_1,8_ <= 0
c9_1: 1 t_1,9_ - 1 y_1,8_ - 1 y_1,9_ <= 0
c10_1: 1 t_1,10_ - 1 y_1,9_ - 1 y_1,10_ <= 0
c11_1: 1 t_1,11_ - 1 y_1,10_ - 1 y_1,11_ <= 0
c12_1: 1 t_1,12_ - 1 y_1,11_ - 1 y_1,12_ <= 0
c13_1: 1 t_1,13_ - 1 y_1,12_ - 1 y_1,13_ <= 0
c14_1: 1 t_1,14_ - 1 y_1,13_ - 1 y_1,14_ <= 0
c15_1: 1 t_1,15_ - 1 y_1,14_ - 1 y_1,15_ <= 0
c16: 1 t_1,16_ - 1 y_1,15_ - 1 y_1,16_ <= 0
c17: 1 t_1,17_ - 1 y_1,16_ - 1 y_1,17_ <= 0
c18: 1 t_1,18_ - 1 y_1,17_ - 1 y_1,18_ <= 0
c19: 1 t_1,19_ - 1 y_1,18_ - 1 y_1,19_ <= 0
c20: 1 t_1,20_ - 1 y_1,19_ - 1 y_1,20_ <= 0
c21: 1 t_1,21_ - 1 y_1,20_ - 1 y_1,21_ <= 0
c22: 1 t_1,22_ - 1 y_1,21_ - 1 y_1,22_ <= 0
c23: 1 t_1,23_ - 1 y_1,22_ - 1 y_1,23_ <= 0
c24: 1 t_1,24_ - 1 y_1,23_ - 1 y_1,24_ <= 0
c25: 1 t_1,25_ - 1 y_1,24_ - 1 y_1,25_ <= 0
c26: 1 t_1,26_ - 1 y_1,25_ - 1 y_1,26_ <= 0
c27: 1 t_1,27_ - 1 y_1,26_ - 1 y_1,27_ <= 0
c28: 1 t_1,28_ - 1 y_1,27_ - 1 y_1,28_ <= 0
c29: 1 t_1,29_ - 1 y_1,28_ - 1 y_1,29_ <= 0
c30: 1 t_1,30_ - 1 y_1,29_ - 1 y_1,30_ <= 0
c31: 1 t_1,31_ - 1 y_1,30_ - 1 y_1,31_ <= 0
c32: 1 t_1,32_ - 1 y_1,31_ - 1 y_1,32_ <= 0
c33: 1 t_1,33_ - 1 y_1,32_ - 1 y_1,33_ <= 0
c34: 1 t_1,34_ - 1 y_1,33_ - 1 y_1,34_ <= 0
c35: 1 t_1,35_ - 1 y_1,34_ - 1 y_1,35_ <= 0
c36: 1 t_1,36_ - 1 y_1,35_ - 1 y_1,36_ <= 0
c37: 1 t_1,37_ - 1 y_1,36_ - 1 y_1,37_ <= 0
c38: 1 t_1,38_ - 1 y_1,37_ - 1 y_1,38_ <= 0
c39: 1 t_1,39_ - 1 y_1,38_ - 1 y_1,39_ <= 0
c40: 1 t_1,40_ - 1 y_1,39_ - 1 y_1,40_ <= 0
c41: 1 t_1,41_ - 1 y_1,40_ - 1 y_1,41_ <= 0
c42: 1 t_1,42_ - 1 y_1,41_ - 1 y_1,42_ <= 0
c43: 1 t_1,43_ - 1 y_1,42_ - 1 y_1,43_ <= 0
c44: 1 t_1,44_ - 1 y_1,43_ - 1 y_1,44_ <= 0
c45: 1 t_1,45_ - 1 y_1,44_ - 1 y_1,45_ <= 0
c46: 1 t_1,46_ - 1 y_1,45_ - 1 y_1,46_ <= 0
c47: 1 t_1,47_ - 1 y_1,46_ - 1 y_1,47_ <= 0
c48: 1 t_1,48_ - 1 y_1,47_ - 1 y_1,48_ <= 0
c49: 1 t_1,49_ - 1 y_1,48_ - 1 y_1,49_ <= 0
c50: 1 t_1,50_ - 1 y_1,49_ - 1 y_1,50_ <= 0
c51: 1 t_1,51_ - 1 y_1,50_ - 1 y_1,51_ <= 0
c52: 1 t_1,52_ - 1 y_1,51_ - 1 y_1,52_ <= 0
c53: 1 t_1,53_ - 1 y_1,52_ - 1 y_1,53_ <= 0
c54: 1 t_1,54_ - 1 y_1,53_ - 1 y_1,54_ <= 0
c55: 1 t_1,55_ - 1 y_1,54_ <= 0
c56: 1 t_2,1_ - 1 y_2,1_ <= 0
c57: 1 t_2,2_ - 1 y_2,1_ - 1 y_2,2_ <= 0
c58: 1 t_2,3_ - 1 y_2,2_ - 1 y_2,3_ <= 0
c59: 1 t_2,4_ - 1 y_2,3_ - 1 y_2,4_ <= 0
c60: 1 t_2,5_ - 1 y_2,4_ - 1 y_2,5_ <= 0
c61: 1 t_2,6_ - 1 y_2,5_ - 1 y_2,6_ <= 0
c62: 1 t_2,7_ - 1 y_2,6_ - 1 y_2,7_ <= 0
c63: 1 t_2,8_ - 1 y_2,7_ - 1 y_2,8_ <= 0
c64: 1 t_2,9_ - 1 y_2,8_ - 1 y_2,9_ <= 0
c65: 1 t_2,10_ - 1 y_2,9_ - 1 y_2,10_ <= 0
c66: 1 t_2,11_ - 1 y_2,10_ - 1 y_2,11_ <= 0
c67: 1 t_2,12_ - 1 y_2,11_ - 1 y_2,12_ <= 0
c68: 1 t_2,13_ - 1 y_2,12_ - 1 y_2,13_ <= 0
c69: 1 t_2,14_ - 1 y_2,13_ - 1 y_2,14_ <= 0
c70: 1 t_2,15_ - 1 y_2,14_ - 1 y_2,15_ <= 0
c71: 1 t_2,16_ - 1 y_2,15_ - 1 y_2,16_ <= 0
c72: 1 t_2,17_ - 1 y_2,16_ - 1 y_2,17_ <= 0
c73: 1 t_2,18_ - 1 y_2,17_ - 1 y_2,18_ <= 0
c74: 1 t_2,19_ - 1 y_2,18_ - 1 y_2,19_ <= 0
c75: 1 t_2,20_ - 1 y_2,19_ - 1 y_2,20_ <= 0
c76: 1 t_2,21_ - 1 y_2,20_ - 1 y_2,21_ <= 0
c77: 1 t_2,22_ - 1 y_2,21_ - 1 y_2,22_ <= 0
c78: 1 t_2,23_ - 1 y_2,22_ - 1 y_2,23_ <= 0
c79: 1 t_2,24_ - 1 y_2,23_ - 1 y_2,24_ <= 0
c80: 1 t_2,25_ - 1 y_2,24_ - 1 y_2,25_ <= 0
c81: 1 t_2,26_ - 1 y_2,25_ - 1 y_2,26_ <= 0
c82: 1 t_2,27_ - 1 y_2,26_ - 1 y_2,27_ <= 0
c83: 1 t_2,28_ - 1 y_2,27_ - 1 y_2,28_ <= 0
c84: 1 t_2,29_ - 1 y_2,28_ - 1 y_2,29_ <= 0
c85: 1 t_2,30_ - 1 y_2,29_ - 1 y_2,30_ <= 0
c86: 1 t_2,31_ - 1 y_2,30_ - 1 y_2,31_ <= 0
c87: 1 t_2,32_ - 1 y_2,31_ - 1 y_2,32_ <= 0
c88: 1 t_2,33_ - 1 y_2,32_ - 1 y_2,33_ <= 0
c89: 1 t_2,34_ - 1 y_2,33_ - 1 y_2,34_ <= 0
c90: 1 t_2,35_ - 1 y_2,34_ - 1 y_2,35_ <= 0
c91: 1 t_2,36_ - 1 y_2,35_ - 1 y_2,36_ <= 0
c92: 1 t_2,37_ - 1 y_2,36_ - 1 y_2,37_ <= 0
c93: 1 t_2,38_ - 1 y_2,37_ - 1 y_2,38_ <= 0
c94: 1 t_2,39_ - 1 y_2,38_ - 1 y_2,39_ <= 0
c95: 1 t_2,40_ - 1 y_2,39_ - 1 y_2,40_ <= 0
c96: 1 t_2,41_ - 1 y_2,40_ - 1 y_2,41_ <= 0
c97: 1 t_2,42_ - 1 y_2,41_ - 1 y_2,42_ <= 0
c98: 1 t_2,43_ - 1 y_2,42_ - 1 y_2,43_ <= 0
c99: 1 t_2,44_ - 1 y_2,43_ - 1 y_2,44_ <= 0
c100: 1 t_2,45_ - 1 y_2,44_ - 1 y_2,45_ <= 0
c101: 1 t_2,46_ - 1 y_2,45_ - 1 y_2,46_ <= 0
c102: 1 t_2,47_ - 1 y_2,46_ - 1 y_2,47_ <= 0
c103: 1 t_2,48_ - 1 y_2,47_ - 1 y_2,48_ <= 0
c104: 1 t_2,49_ - 1 y_2,48_ - 1 y_2,49_ <= 0
c105: 1 t_2,50_ - 1 y_2,49_ - 1 y_2,50_ <= 0
c106: 1 t_2,51_ - 1 y_2,50_ - 1 y_2,51_ <= 0
c107: 1 t_2,52_ - 1 y_2,51_ - 1 y_2,52_ <= 0
c108: 1 t_2,53_ - 1 y_2,52_ - 1 y_2,53_ <= 0
c109: 1 t_2,54_ - 1 y_2,53_ - 1 y_2,54_ <= 0
c110: 1 t_2,55_ - 1 y_2,54_ <= 0
c111: 1 t_3,1_ - 1 y_3,1_ <= 0
c112: 1 t_3,2_ - 1 y_3,1_ - 1 y_3,2_ <= 0
c113: 1 t_3,3_ - 1 y_3,2_ - 1 y_3,3_ <= 0
c114: 1 t_3,4_ - 1 y_3,3_ - 1 y_3,4_ <= 0
c115: 1 t_3,5_ - 1 y_3,4_ - 1 y_3,5_ <= 0
c116: 1 t_3,6_ - 1 y_3,5_ - 1 y_3,6_ <= 0
c117: 1 t_3,7_ - 1 y_3,6_ - 1 y_3,7_ <= 0
c118: 1 t_3,8_ - 1 y_3,7_ - 1 y_3,8_ <= 0
c119: 1 t_3,9_ - 1 y_3,8_ - 1 y_3,9_ <= 0
c120: 1 t_3,10_ - 1 y_3,9_ - 1 y_3,10_ <= 0
c121: 1 t_3,11_ - 1 y_3,10_ - 1 y_3,11_ <= 0
c122: 1 t_3,12_ - 1 y_3,11_ - 1 y_3,12_ <= 0
c123: 1 t_3,13_ - 1 y_3,12_ - 1 y_3,13_ <= 0
c124: 1 t_3,14_ - 1 y_3,13_ - 1 y_3,14_ <= 0
c125: 1 t_3,15_ - 1 y_3,14_ - 1 y_3,15_ <= 0
c126: 1 t_3,16_ - 1 y_3,15_ - 1 y_3,16_ <= 0
c127: 1 t_3,17_ - 1 y_3,16_ - 1 y_3,17_ <= 0
c128: 1 t_3,18_ - 1 y_3,17_ - 1 y_3,18_ <= 0
c129: 1 t_3,19_ - 1 y_3,18_ - 1 y_3,19_ <= 0
c130: 1 t_3,20_ - 1 y_3,19_ - 1 y_3,20_ <= 0
c131: 1 t_3,21_ - 1 y_3,20_ - 1 y_3,21_ <= 0
c132: 1 t_3,22_ - 1 y_3,21_ - 1 y_3,22_ <= 0
c133: 1 t_3,23_ - 1 y_3,22_ - 1 y_3,23_ <= 0
c134: 1 t_3,24_ - 1 y_3,23_ - 1 y_3,24_ <= 0
c135: 1 t_3,25_ - 1 y_3,24_ - 1 y_3,25_ <= 0
c136: 1 t_3,26_ - 1 y_3,25_ - 1 y_3,26_ <= 0
c137: 1 t_3,27_ - 1 y_3,26_ - 1 y_3,27_ <= 0
c138: 1 t_3,28_ - 1 y_3,27_ - 1 y_3,28_ <= 0
c139: 1 t_3,29_ - 1 y_3,28_ - 1 y_3,29_ <= 0
c140: 1 t_3,30_ - 1 y_3,29_ - 1 y_3,30_ <= 0
c141: 1 t_3,31_ - 1 y_3,30_ - 1 y_3,31_ <= 0
c142: 1 t_3,32_ - 1 y_3,31_ - 1 y_3,32_ <= 0
c143: 1 t_3,33_ - 1 y_3,32_ - 1 y_3,33_ <= 0
c144: 1 t_3,34_ - 1 y_3,33_ - 1 y_3,34_ <= 0
c145: 1 t_3,35_ - 1 y_3,34_ - 1 y_3,35_ <= 0
c146: 1 t_3,36_ - 1 y_3,35_ - 1 y_3,36_ <= 0
c147: 1 t_3,37_ - 1 y_3,36_ - 1 y_3,37_ <= 0
c148: 1 t_3,38_ - 1 y_3,37_ - 1 y_3,38_ <= 0
c149: 1 t_3,39_ - 1 y_3,38_ - 1 y_3,39_ <= 0
c150: 1 t_3,40_ - 1 y_3,39_ - 1 y_3,40_ <= 0
c151: 1 t_3,41_ - 1 y_3,40_ - 1 y_3,41_ <= 0
c152: 1 t_3,42_ - 1 y_3,41_ - 1 y_3,42_ <= 0
c153: 1 t_3,43_ - 1 y_3,42_ - 1 y_3,43_ <= 0
c154: 1 t_3,44_ - 1 y_3,43_ - 1 y_3,44_ <= 0
c155: 1 t_3,45_ - 1 y_3,44_ - 1 y_3,45_ <= 0
c156: 1 t_3,46_ - 1 y_3,45_ - 1 y_3,46_ <= 0
c157: 1 t_3,47_ - 1 y_3,46_ - 1 y_3,47_ <= 0
c158: 1 t_3,48_ - 1 y_3,47_ - 1 y_3,48_ <= 0
c159: 1 t_3,49_ - 1 y_3,48_ - 1 y_3,49_ <= 0
c160: 1 t_3,50_ - 1 y_3,49_ - 1 y_3,50_ <= 0
c161: 1 t_3,51_ - 1 y_3,50_ - 1 y_3,51_ <= 0
c162: 1 t_3,52_ - 1 y_3,51_ - 1 y_3,52_ <= 0
c163: 1 t_3,53_ - 1 y_3,52_ - 1 y_3,53_ <= 0
c164: 1 t_3,54_ - 1 y_3,53_ - 1 y_3,54_ <= 0
c165: 1 t_3,55_ - 1 y_3,54_ <= 0
c166: 1 t_4,1_ - 1 y_4,1_ <= 0
c167: 1 t_4,2_ - 1 y_4,1_ - 1 y_4,2_ <= 0
c168: 1 t_4,3_ - 1 y_4,2_ - 1 y_4,3_ <= 0
c169: 1 t_4,4_ - 1 y_4,3_ - 1 y_4,4_ <= 0
c170: 1 t_4,5_ - 1 y_4,4_ - 1 y_4,5_ <= 0
c171: 1 t_4,6_ - 1 y_4,5_ - 1 y_4,6_ <= 0
c172: 1 t_4,7_ - 1 y_4,6_ - 1 y_4,7_ <= 0
c173: 1 t_4,8_ - 1 y_4,7_ - 1 y_4,8_ <= 0
c174: 1 t_4,9_ - 1 y_4,8_ - 1 y_4,9_ <= 0
c175: 1 t_4,10_ - 1 y_4,9_ - 1 y_4,10_ <= 0
c176: 1 t_4,11_ - 1 y_4,10_ - 1 y_4,11_ <= 0
c177: 1 t_4,12_ - 1 y_4,11_ - 1 y_4,12_ <= 0
c178: 1 t_4,13_ - 1 y_4,12_ - 1 y_4,13_ <= 0
c179: 1 t_4,14_ - 1 y_4,13_ - 1 y_4,14_ <= 0
c180: 1 t_4,15_ - 1 y_4,14_ - 1 y_4,15_ <= 0
c181: 1 t_4,16_ - 1 y_4,15_ - 1 y_4,16_ <= 0
c182: 1 t_4,17_ - 1 y_4,16_ - 1 y_4,17_ <= 0
c183: 1 t_4,18_ - 1 y_4,17_ - 1 y_4,18_ <= 0
c184: 1 t_4,19_ - 1 y_4,18_ - 1 y_4,19_ <= 0
c185: 1 t_4,20_ - 1 y_4,19_ - 1 y_4,20_ <= 0
c186: 1 t_4,21_ - 1 y_4,20_ - 1 y_4,21_ <= 0
c187: 1 t_4,22_ - 1 y_4,21_ - 1 y_4,22_ <= 0
c188: 1 t_4,23_ - 1 y_4,22_ - 1 y_4,23_ <= 0
c189: 1 t_4,24_ - 1 y_4,23_ - 1 y_4,24_ <= 0
c190: 1 t_4,25_ - 1 y_4,24_ - 1 y_4,25_ <= 0
c191: 1 t_4,26_ - 1 y_4,25_ - 1 y_4,26_ <= 0
c192: 1 t_4,27_ - 1 y_4,26_ - 1 y_4,27_ <= 0
c193: 1 t_4,28_ - 1 y_4,27_ - 1 y_4,28_ <= 0
c194: 1 t_4,29_ - 1 y_4,28_ - 1 y_4,29_ <= 0
c195: 1 t_4,30_ - 1 y_4,29_ - 1 y_4,30_ <= 0
c196: 1 t_4,31_ - 1 y_4,30_ - 1 y_4,31_ <= 0
c197: 1 t_4,32_ - 1 y_4,31_ - 1 y_4,32_ <= 0
c198: 1 t_4,33_ - 1 y_4,32_ - 1 y_4,33_ <= 0
c199: 1 t_4,34_ - 1 y_4,33_ - 1 y_4,34_ <= 0
c200: 1 t_4,35_ - 1 y_4,34_ - 1 y_4,35_ <= 0
c201: 1 t_4,36_ - 1 y_4,35_ - 1 y_4,36_ <= 0
c202: 1 t_4,37_ - 1 y_4,36_ - 1 y_4,37_ <= 0
c203: 1 t_4,38_ - 1 y_4,37_ - 1 y_4,38_ <= 0
c204: 1 t_4,39_ - 1 y_4,38_ - 1 y_4,39_ <= 0
c205: 1 t_4,40_ - 1 y_4,39_ - 1 y_4,40_ <= 0
c206: 1 t_4,41_ - 1 y_4,40_ - 1 y_4,41_ <= 0
c207: 1 t_4,42_ - 1 y_4,41_ - 1 y_4,42_ <= 0
c208: 1 t_4,43_ - 1 y_4,42_ - 1 y_4,43_ <= 0
c209: 1 t_4,44_ - 1 y_4,43_ - 1 y_4,44_ <= 0
c210: 1 t_4,45_ - 1 y_4,44_ - 1 y_4,45_ <= 0
c211: 1 t_4,46_ - 1 y_4,45_ - 1 y_4,46_ <= 0
c212: 1 t_4,47_ - 1 y_4,46_ - 1 y_4,47_ <= 0
c213: 1 t_4,48_ - 1 y_4,47_ - 1 y_4,48_ <= 0
c214: 1 t_4,49_ - 1 y_4,48_ - 1 y_4,49_ <= 0
c215: 1 t_4,50_ - 1 y_4,49_ - 1 y_4,50_ <= 0
c216: 1 t_4,51_ - 1 y_4,50_ - 1 y_4,51_ <= 0
c217: 1 t_4,52_ - 1 y_4,51_ - 1 y_4,52_ <= 0
c218: 1 t_4,53_ - 1 y_4,52_ - 1 y_4,53_ <= 0
c219: 1 t_4,54_ - 1 y_4,53_ - 1 y_4,54_ <= 0
c220: 1 t_4,55_ - 1 y_4,54_ <= 0
c221: 1 t_5,1_ - 1 y_5,1_ <= 0
c222: 1 t_5,2_ - 1 y_5,1_ - 1 y_5,2_ <= 0
c223: 1 t_5,3_ - 1 y_5,2_ - 1 y_5,3_ <= 0
c224: 1 t_5,4_ - 1 y_5,3_ - 1 y_5,4_ <= 0
c225: 1 t_5,5_ - 1 y_5,4_ - 1 y_5,5_ <= 0
c226: 1 t_5,6_ - 1 y_5,5_ - 1 y_5,6_ <= 0
c227: 1 t_5,7_ - 1 y_5,6_ - 1 y_5,7_ <= 0
c228: 1 t_5,8_ - 1 y_5,7_ - 1 y_5,8_ <= 0
c229: 1 t_5,9_ - 1 y_5,8_ - 1 y_5,9_ <= 0
c230: 1 t_5,10_ - 1 y_5,9_ - 1 y_5,10_ <= 0
c231: 1 t_5,11_ - 1 y_5,10_ - 1 y_5,11_ <= 0
c232: 1 t_5,12_ - 1 y_5,11_ - 1 y_5,12_ <= 0
c233: 1 t_5,13_ - 1 y_5,12_ - 1 y_5,13_ <= 0
c234: 1 t_5,14_ - 1 y_5,13_ - 1 y_5,14_ <= 0
c235: 1 t_5,15_ - 1 y_5,14_ - 1 y_5,15_ <= 0
c236: 1 t_5,16_ - 1 y_5,15_ - 1 y_5,16_ <= 0
c237: 1 t_5,17_ - 1 y_5,16_ - 1 y_5,17_ <= 0
c238: 1 t_5,18_ - 1 y_5,17_ - 1 y_5,18_ <= 0
c239: 1 t_5,19_ - 1 y_5,18_ - 1 y_5,19_ <= 0
c240: 1 t_5,20_ - 1 y_5,19_ - 1 y_5,20_ <= 0
c241: 1 t_5,21_ - 1 y_5,20_ - 1 y_5,21_ <= 0
c242: 1 t_5,22_ - 1 y_5,21_ - 1 y_5,22_ <= 0
c243: 1 t_5,23_ - 1 y_5,22_ - 1 y_5,23_ <= 0
c244: 1 t_5,24_ - 1 y_5,23_ - 1 y_5,24_ <= 0
c245: 1 t_5,25_ - 1 y_5,24_ - 1 y_5,25_ <= 0
c246: 1 t_5,26_ - 1 y_5,25_ - 1 y_5,26_ <= 0
c247: 1 t_5,27_ - 1 y_5,26_ - 1 y_5,27_ <= 0
c248: 1 t_5,28_ - 1 y_5,27_ - 1 y_5,28_ <= 0
c249: 1 t_5,29_ - 1 y_5,28_ - 1 y_5,29_ <= 0
c250: 1 t_5,30_ - 1 y_5,29_ - 1 y_5,30_ <= 0
c251: 1 t_5,31_ - 1 y_5,30_ - 1 y_5,31_ <= 0
c252: 1 t_5,32_ - 1 y_5,31_ - 1 y_5,32_ <= 0
c253: 1 t_5,33_ - 1 y_5,32_ - 1 y_5,33_ <= 0
c254: 1 t_5,34_ - 1 y_5,33_ - 1 y_5,34_ <= 0
c255: 1 t_5,35_ - 1 y_5,34_ - 1 y_5,35_ <= 0
c256: 1 t_5,36_ - 1 y_5,35_ - 1 y_5,36_ <= 0
c257: 1 t_5,37_ - 1 y_5,36_ - 1 y_5,37_ <= 0
c258: 1 t_5,38_ - 1 y_5,37_ - 1 y_5,38_ <= 0
c259: 1 t_5,39_ - 1 y_5,38_ - 1 y_5,39_ <= 0
c260: 1 t_5,40_ - 1 y_5,39_ - 1 y_5,40_ <= 0
c261: 1 t_5,41_ - 1 y_5,40_ - 1 y_5,41_ <= 0
c262: 1 t_5,42_ - 1 y_5,41_ - 1 y_5,42_ <= 0
c263: 1 t_5,43_ - 1 y_5,42_ - 1 y_5,43_ <= 0
c264: 1 t_5,44_ - 1 y_5,43_ - 1 y_5,44_ <= 0
c265: 1 t_5,45_ - 1 y_5,44_ - 1 y_5,45_ <= 0
c266: 1 t_5,46_ - 1 y_5,45_ - 1 y_5,46_ <= 0
c267: 1 t_5,47_ - 1 y_5,46_ - 1 y_5,47_ <= 0
c268: 1 t_5,48_ - 1 y_5,47_ - 1 y_5,48_ <= 0
c269: 1 t_5,49_ - 1 y_5,48_ - 1 y_5,49_ <= 0
c270: 1 t_5,50_ - 1 y_5,49_ - 1 y_5,50_ <= 0
c271: 1 t_5,51_ - 1 y_5,50_ - 1 y_5,51_ <= 0
c272: 1 t_5,52_ - 1 y_5,51_ - 1 y_5,52_ <= 0
c273: 1 t_5,53_ - 1 y_5,52_ - 1 y_5,53_ <= 0
c274: 1 t_5,54_ - 1 y_5,53_ - 1 y_5,54_ <= 0
c275: 1 t_5,55_ - 1 y_5,54_ <= 0
c276: 4 t_1,1_ + 4 t_2,1_ + 4 t_3,1_ + 4 t_4,1_ + 4 t_5,1_ + 3.7091906721536354 t_1,2_ + 3.7091906721536354 t_2,2_ + 3.7091906721536354 t_3,2_ + 3.7091906721536354 t_4,2_ + 3.7091906721536354 t_5,2_ + 3.4293552812071337 t_1,3_ + 3.4293552812071337 t_2,3_ + 3.4293552812071337 t_3,3_ + 3.4293552812071337 t_4,3_ + 3.4293552812071337 t_5,3_ + 3.1604938271604937 t_1,4_ + 3.1604938271604937 t_2,4_ + 3.1604938271604937 t_3,4_ + 3.1604938271604937 t_4,4_ + 3.1604938271604937 t_5,4_ + 2.9026063100137174 t_1,5_ + 2.9026063100137174 t_2,5_ + 2.9026063100137174 t_3,5_ + 2.9026063100137174 t_4,5_ + 2.9026063100137174 t_5,5_ + 2.6556927297668045 t_1,6_ + 2.6556927297668045 t_2,6_ + 2.6556927297668045 t_3,6_ + 2.6556927297668045 t_4,6_ + 2.6556927297668045 t_5,6_ + 2.4197530864197523 t_1,7_ + 2.4197530864197523 t_2,7_ + 2.4197530864197523 t_3,7_ + 2.4197530864197523 t_4,7_ + 2.4197530864197523 t_5,7_ + 2.194787379972565 t_1,8_ + 2.194787379972565 t_2,8_ + 2.194787379972565 t_3,8_ + 2.194787379972565 t_4,8_ + 2.194787379972565 t_5,8_ + 1.9807956104252402 t_1,9_ + 1.9807956104252402 t_2,9_ + 1.9807956104252402 t_3,9_ + 1.9807956104252402 t_4,9_ + 1.9807956104252402 t_5,9_ + 1.7777777777777781 t_1,10_ + 1.7777777777777781 t_2,10_ + 1.7777777777777781 t_3,10_ + 1.7777777777777781 t_4,10_ + 1.7777777777777781 t_5,10_ + 1.585733882030179 t_1,11_ + 1.585733882030179 t_2,11_ + 1.585733882030179 t_3,11_ + 1.585733882030179 t_4,11_ + 1.585733882030179 t_5,11_ + 1.4046639231824416 t_1,12_ + 1.4046639231824416 t_2,12_ + 1.4046639231824416 t_3,12_ + 1.4046639231824416 t_4,12_ + 1.4046639231824416 t_5,12_ + 1.234567901234568 t_1,13_ + 1.234567901234568 t_2,13_ + 1.234567901234568 t_3,13_ + 1.234567901234568 t_4,13_ + 1.234567901234568 t_5,13_ + 1.0754458161865572 t_1,14_ + 1.0754458161865572 t_2,14_ + 1.0754458161865572 t_3,14_ + 1.0754458161865572 t_4,14_ + 1.0754458161865572 t_5,14_ + 0.9272976680384086 t_1,15_ + 0.9272976680384086 t_2,15_ + 0.9272976680384086 t_3,15_ + 0.9272976680384086 t_4,15_ + 0.9272976680384086 t_5,15_ + 0.7901234567901234 t_1,16_ + 0.7901234567901234 t_2,16_ + 0.7901234567901234 t_3,16_ + 0.7901234567901234 t_4,16_ + 0.7901234567901234 t_5,16_ + 0.6639231824417011 t_1,17_ + 0.6639231824417011 t_2,17_ + 0.6639231824417011 t_3,17_ + 0.6639231824417011 t_4,17_ + 0.6639231824417011 t_5,17_ + 0.5486968449931411 t_1,18_ + 0.5486968449931411 t_2,18_ + 0.5486968449931411 t_3,18_ + 0.5486968449931411 t_4,18_ + 0.5486968449931411 t_5,18_ + 0.4444444444444447 t_1,19_ + 0.4444444444444447 t_2,19_ + 0.4444444444444447 t_3,19_ + 0.4444444444444447 t_4,19_ + 0.4444444444444447 t_5,19_ + 0.3511659807956104 t_1,20_ + 0.3511659807956104 t_2,20_ + 0.3511659807956104 t_3,20_ + 0.3511659807956104 t_4,20_ + 0.3511659807956104 t_5,20_ + 0.2688614540466393 t_1,21_ + 0.2688614540466393 t_2,21_ + 0.2688614540466393 t_3,21_ + 0.2688614540466393 t_4,21_ + 0.2688614540466393 t_5,21_ + 0.19753086419753094 t_1,22_ + 0.19753086419753094 t_2,22_ + 0.19753086419753094 t_3,22_ + 0.19753086419753094 t_4,22_ + 0.19753086419753094 t_5,22_ + 0.1371742112482853 t_1,23_ + 0.1371742112482853 t_2,23_ + 0.1371742112482853 t_3,23_ + 0.1371742112482853 t_4,23_ + 0.1371742112482853 t_5,23_ + 0.0877914951989026 t_1,24_ + 0.0877914951989026 t_2,24_ + 0.0877914951989026 t_3,24_ + 0.0877914951989026 t_4,24_ + 0.0877914951989026 t_5,24_ + 0.04938271604938276 t_1,25_ + 0.04938271604938276 t_2,25_ + 0.04938271604938276 t_3,25_ + 0.04938271604938276 t_4,25_ + 0.04938271604938276 t_5,25_ + 0.021947873799725615 t_1,26_ + 0.021947873799725615 t_2,26_ + 0.021947873799725615 t_3,26_ + 0.021947873799725615 t_4,26_ + 0.021947873799725615 t_5,26_ + 0.0054869684499314455 t_1,27_ + 0.0054869684499314455 t_2,27_ + 0.0054869684499314455 t_3,27_ + 0.0054869684499314455 t_4,27_ + 0.0054869684499314455 t_5,27_ + 0.005486968449931396 t_1,29_ + 0.005486968449931396 t_2,29_ + 0.005486968449931396 t_3,29_ + 0.005486968449931396 t_4,29_ + 0.005486968449931396 t_5,29_ + 0.021947873799725716 t_1,30_ + 0.021947873799725716 t_2,30_ + 0.021947873799725716 t_3,30_ + 0.021947873799725716 t_4,30_ + 0.021947873799725716 t_5,30_ + 0.04938271604938276 t_1,31_ + 0.04938271604938276 t_2,31_ + 0.04938271604938276 t_3,31_ + 0.04938271604938276 t_4,31_ + 0.04938271604938276 t_5,31_ + 0.0877914951989026 t_1,32_ + 0.0877914951989026 t_2,32_ + 0.0877914951989026 t_3,32_ + 0.0877914951989026 t_4,32_ + 0.0877914951989026 t_5,32_ + 0.13717421124828522 t_1,33_ + 0.13717421124828522 t_2,33_ + 0.13717421124828522 t_3,33_ + 0.13717421124828522 t_4,33_ + 0.13717421124828522 t_5,33_ + 0.19753086419753105 t_1,34_ + 0.19753086419753105 t_2,34_ + 0.19753086419753105 t_3,34_ + 0.19753086419753105 t_4,34_ + 0.19753086419753105 t_5,34_ + 0.2688614540466393 t_1,35_ + 0.2688614540466393 t_2,35_ + 0.2688614540466393 t_3,35_ + 0.2688614540466393 t_4,35_ + 0.2688614540466393 t_5,35_ + 0.3511659807956104 t_1,36_ + 0.3511659807956104 t_2,36_ + 0.3511659807956104 t_3,36_ + 0.3511659807956104 t_4,36_ + 0.3511659807956104 t_5,36_ + 0.44444444444444425 t_1,37_ + 0.44444444444444425 t_2,37_ + 0.44444444444444425 t_3,37_ + 0.44444444444444425 t_4,37_ + 0.44444444444444425 t_5,37_ + 0.5486968449931415 t_1,38_ + 0.5486968449931415 t_2,38_ + 0.5486968449931415 t_3,38_ + 0.5486968449931415 t_4,38_ + 0.5486968449931415 t_5,38_ + 0.6639231824417011 t_1,39_ + 0.6639231824417011 t_2,39_ + 0.6639231824417011 t_3,39_ + 0.6639231824417011 t_4,39_ + 0.6639231824417011 t_5,39_ + 0.7901234567901234 t_1,40_ + 0.7901234567901234 t_2,40_ + 0.7901234567901234 t_3,40_ + 0.7901234567901234 t_4,40_ + 0.7901234567901234 t_5,40_ + 0.9272976680384084 t_1,41_ + 0.9272976680384084 t_2,41_ + 0.9272976680384084 t_3,41_ + 0.9272976680384084 t_4,41_ + 0.9272976680384084 t_5,41_ + 1.0754458161865572 t_1,42_ + 1.0754458161865572 t_2,42_ + 1.0754458161865572 t_3,42_ + 1.0754458161865572 t_4,42_ + 1.0754458161865572 t_5,42_ + 1.234567901234568 t_1,43_ + 1.234567901234568 t_2,43_ + 1.234567901234568 t_3,43_ + 1.234567901234568 t_4,43_ + 1.234567901234568 t_5,43_ + 1.4046639231824416 t_1,44_ + 1.4046639231824416 t_2,44_ + 1.4046639231824416 t_3,44_ + 1.4046639231824416 t_4,44_ + 1.4046639231824416 t_5,44_ + 1.5857338820301778 t_1,45_ + 1.5857338820301778 t_2,45_ + 1.5857338820301778 t_3,45_ + 1.5857338820301778 t_4,45_ + 1.5857338820301778 t_5,45_ + 1.7777777777777781 t_1,46_ + 1.7777777777777781 t_2,46_ + 1.7777777777777781 t_3,46_ + 1.7777777777777781 t_4,46_ + 1.7777777777777781 t_5,46_ + 1.9807956104252402 t_1,47_ + 1.9807956104252402 t_2,47_ + 1.9807956104252402 t_3,47_ + 1.9807956104252402 t_4,47_ + 1.9807956104252402 t_5,47_ + 2.194787379972565 t_1,48_ + 2.194787379972565 t_2,48_ + 2.194787379972565 t_3,48_ + 2.194787379972565 t_4,48_ + 2.194787379972565 t_5,48_ + 2.4197530864197523 t_1,49_ + 2.4197530864197523 t_2,49_ + 2.4197530864197523 t_3,49_ + 2.4197530864197523 t_4,49_ + 2.4197530864197523 t_5,49_ + 2.6556927297668045 t_1,50_ + 2.6556927297668045 t_2,50_ + 2.6556927297668045 t_3,50_ + 2.6556927297668045 t_4,50_ + 2.6556927297668045 t_5,50_ + 2.9026063100137174 t_1,51_ + 2.9026063100137174 t_2,51_ + 2.9026063100137174 t_3,51_ + 2.9026063100137174 t_4,51_ + 2.9026063100137174 t_5,51_ + 3.1604938271604937 t_1,52_ + 3.1604938271604937 t_2,52_ + 3.1604938271604937 t_3,52_ + 3.1604938271604937 t_4,52_ + 3.1604938271604937 t_5,52_ + 3.4293552812071324 t_1,53_ + 3.4293552812071324 t_2,53_ + 3.4293552812071324 t_3,53_ + 3.4293552812071324 t_4,53_ + 3.4293552812071324 t_5,53_ + 3.7091906721536354 t_1,54_ + 3.7091906721536354 t_2,54_ + 3.7091906721536354 t_3,54_ + 3.7091906721536354 t_4,54_ + 3.7091906721536354 t_5,54_ + 4 t_1,55_ + 4 t_2,55_ + 4 t_3,55_ + 4 t_4,55_ + 4 t_5,55_ <= 1
c1: 1 y_1,1_ + 1 y_1,2_ + 1 y_1,3_ + 1 y_1,4_ + 1 y_1,5_ + 1 y_1,6_ + 1 y_1,7_ + 1 y_1,8_ + 1 y_1,9_ + 1 y_1,10_ + 1 y_1,11_ + 1 y_1,12_ + 1 y_1,13_ + 1 y_1,14_ + 1 y_1,15_ + 1 y_1,16_ + 1 y_1,17_ + 1 y_1,18_ + 1 y_1,19_ + 1 y_1,20_ + 1 y_1,21_ + 1 y_1,22_ + 1 y_1,23_ + 1 y_1,24_ + 1 y_1,25_ + 1 y_1,26_ + 1 y_1,27_ + 1 y_1,28_ + 1 y_1,29_ + 1 y_1,30_ + 1 y_1,31_ + 1 y_1,32_ + 1 y_1,33_ + 1 y_1,34_ + 1 y_1,35_ + 1 y_1,36_ + 1 y_1,37_ + 1 y_1,38_ + 1 y_1,39_ + 1 y_1,40_ + 1 y_1,41_ + 1 y_1,42_ + 1 y_1,43_ + 1 y_1,44_ + 1 y_1,45_ + 1 y_1,46_ + 1 y_1,47_ + 1 y_1,48_ + 1 y_1,49_ + 1 y_1,50_ + 1 y_1,51_ + 1 y_1,52_ + 1 y_1,53_ + 1 y_1,54_ = 1
c2: 1 t_1,1_ + 1 t_1,2_ + 1 t_1,3_ + 1 t_1,4_ + 1 t_1,5_ + 1 t_1,6_ + 1 t_1,7_ + 1 t_1,8_ + 1 t_1,9_ + 1 t_1,10_ + 1 t_1,11_ + 1 t_1,12_ + 1 t_1,13_ + 1 t_1,14_ + 1 t_1,15_ + 1 t_1,16_ + 1 t_1,17_ + 1 t_1,18_ + 1 t_1,19_ + 1 t_1,20_ + 1 t_1,21_ + 1 t_1,22_ + 1 t_1,23_ + 1 t_1,24_ + 1 t_1,25_ + 1 t_1,26_ + 1 t_1,27_ + 1 t_1,28_ + 1 t_1,29_ + 1 t_1,30_ + 1 t_1,31_ + 1 t_1,32_ + 1 t_1,33_ + 1 t_1,34_ + 1 t_1,35_ + 1 t_1,36_ + 1 t_1,37_ + 1 t_1,38_ + 1 t_1,39_ + 1 t_1,40_ + 1 t_1,41_ + 1 t_1,42_ + 1 t_1,43_ + 1 t_1,44_ + 1 t_1,45_ + 1 t_1,46_ + 1 t_1,47_ + 1 t_1,48_ + 1 t_1,49_ + 1 t_1,50_ + 1 t_1,51_ + 1 t_1,52_ + 1 t_1,53_ + 1 t_1,54_ + 1 t_1,55_ = 1
c3: -2 t_1,1_ - 1.925925925925926 t_1,2_ - 1.851851851851852 t_1,3_ - 1.7777777777777777 t_1,4_ - 1.7037037037037037 t_1,5_ - 1.6296296296296298 t_1,6_ - 1.5555555555555554 t_1,7_ - 1.4814814814814814 t_1,8_ - 1.4074074074074074 t_1,9_ - 1.3333333333333335 t_1,10_ - 1.2592592592592595 t_1,11_ - 1.1851851851851851 t_1,12_ - 1.1111111111111112 t_1,13_ - 1.0370370370370372 t_1,14_ - 0.9629629629629629 t_1,15_ - 0.8888888888888888 t_1,16_ - 0.8148148148148149 t_1,17_ - 0.7407407407407406 t_1,18_ - 0.6666666666666669 t_1,19_ - 0.5925925925925926 t_1,20_ - 0.5185185185185186 t_1,21_ - 0.44444444444444453 t_1,22_ - 0.37037037037037035 t_1,23_ - 0.2962962962962963 t_1,24_ - 0.22222222222222232 t_1,25_ - 0.14814814814814803 t_1,26_ - 0.07407407407407429 t_1,27_ + 0.07407407407407396 t_1,29_ + 0.14814814814814836 t_1,30_ + 0.22222222222222232 t_1,31_ + 0.2962962962962963 t_1,32_ + 0.37037037037037024 t_1,33_ + 0.44444444444444464 t_1,34_ + 0.5185185185185186 t_1,35_ + 0.5925925925925926 t_1,36_ + 0.6666666666666665 t_1,37_ + 0.7407407407407409 t_1,38_ + 0.8148148148148149 t_1,39_ + 0.8888888888888888 t_1,40_ + 0.9629629629629628 t_1,41_ + 1.0370370370370372 t_1,42_ + 1.1111111111111112 t_1,43_ + 1.1851851851851851 t_1,44_ + 1.259259259259259 t_1,45_ + 1.3333333333333335 t_1,46_ + 1.4074074074074074 t_1,47_ + 1.4814814814814814 t_1,48_ + 1.5555555555555554 t_1,49_ + 1.6296296296296298 t_1,50_ + 1.7037037037037037 t_1,51_ + 1.7777777777777777 t_1,52_ + 1.8518518518518516 t_1,53_ + 1.925925925925926 t_1,54_ + 2 t_1,55_ - 1 x_1_ = 0
c4: 1 y_2,1_ + 1 y_2,2_ + 1 y_2,3_ + 1 y_2,4_ + 1 y_2,5_ + 1 y_2,6_ + 1 y_2,7_ + 1 y_2,8_ + 1 y_2,9_ + 1 y_2,10_ + 1 y_2,11_ + 1 y_2,12_ + 1 y_2,13_ + 1 y_2,14_ + 1 y_2,15_ + 1 y_2,16_ + 1 y_2,17_ + 1 y_2,18_ + 1 y_2,19_ + 1 y_2,20_ + 1 y_2,21_ + 1 y_2,22_ + 1 y_2,23_ + 1 y_2,24_ + 1 y_2,25_ + 1 y_2,26_ + 1 y_2,27_ + 1 y_2,28_ + 1 y_2,29_ + 1 y_2,30_ + 1 y_2,31_ + 1 y_2,32_ + 1 y_2,33_ + 1 y_2,34_ + 1 y_2,35_ + 1 y_2,36_ + 1 y_2,37_ + 1 y_2,38_ + 1 y_2,39_ + 1 y_2,40_ + 1 y_2,41_ + 1 y_2,42_ + 1 y_2,43_ + 1 y_2,44_ + 1 y_2,45_ + 1 y_2,46_ + 1 y_2,47_ + 1 y_2,48_ + 1 y_2,49_ + 1 y_2,50_ + 1 y_2,51_ + 1 y_2,52_ + 1 y_2,53_ + 1 y_2,54_ = 1
c5: 1 t_2,1_ + 1 t_2,2_ + 1 t_2,3_ + 1 t_2,4_ + 1 t_2,5_ + 1 t_2,6_ + 1 t_2,7_ + 1 t_2,8_ + 1 t_2,9_ + 1 t_2,10_ + 1 t_2,11_ + 1 t_2,12_ + 1 t_2,13_ + 1 t_2,14_ + 1 t_2,15_ + 1 t_2,16_ + 1 t_2,17_ + 1 t_2,18_ + 1 t_2,19_ + 1 t_2,20_ + 1 t_2,21_ + 1 t_2,22_ + 1 t_2,23_ + 1 t_2,24_ + 1 t_2,25_ + 1 t_2,26_ + 1 t_2,27_ + 1 t_2,28_ + 1 t_2,29_ + 1 t_2,30_ + 1 t_2,31_ + 1 t_2,32_ + 1 t_2,33_ + 1 t_2,34_ + 1 t_2,35_ + 1 t_2,36_ + 1 t_2,37_ + 1 t_2,38_ + 1 t_2,39_ + 1 t_2,40_ + 1 t_2,41_ + 1 t_2,42_ + 1 t_2,43_ + 1 t_2,44_ + 1 t_2,45_ + 1 t_2,46_ + 1 t_2,47_ + 1 t_2,48_ + 1 t_2,49_ + 1 t_2,50_ + 1 t_2,51_ + 1 t_2,52_ + 1 t_2,53_ + 1 t_2,54_ + 1 t_2,55_ = 1
c6: -2 t_2,1_ - 1.925925925925926 t_2,2_ - 1.851851851851852 t_2,3_ - 1.7777777777777777 t_2,4_ - 1.7037037037037037 t_2,5_ - 1.6296296296296298 t_2,6_ - 1.5555555555555554 t_2,7_ - 1.4814814814814814 t_2,8_ - 1.4074074074074074 t_2,9_ - 1.3333333333333335 t_2,10_ - 1.2592592592592595 t_2,11_ - 1.1851851851851851 t_2,12_ - 1.1111111111111112 t_2,13_ - 1.0370370370370372 t_2,14_ - 0.9629629629629629 t_2,15_ - 0.8888888888888888 t_2,16_ - 0.8148148148148149 t_2,17_ - 0.7407407407407406 t_2,18_ - 0.6666666666666669 t_2,19_ - 0.5925925925925926 t_2,20_ - 0.5185185185185186 t_2,21_ - 0.44444444444444453 t_2,22_ - 0.37037037037037035 t_2,23_ - 0.2962962962962963 t_2,24_ - 0.22222222222222232 t_2,25_ - 0.14814814814814803 t_2,26_ - 0.07407407407407429 t_2,27_ + 0.07407407407407396 t_2,29_ + 0.14814814814814836 t_2,30_ + 0.22222222222222232 t_2,31_ + 0.2962962962962963 t_2,32_ + 0.37037037037037024 t_2,33_ + 0.44444444444444464 t_2,34_ + 0.5185185185185186 t_2,35_ + 0.5925925925925926 t_2,36_ + 0.6666666666666665 t_2,37_ + 0.7407407407407409 t_2,38_ + 0.8148148148148149 t_2,39_ + 0.8888888888888888 t_2,40_ + 0.9629629629629628 t_2,41_ + 1.0370370370370372 t_2,42_ + 1.1111111111111112 t_2,43_ + 1.1851851851851851 t_2,44_ + 1.259259259259259 t_2,45_ + 1.3333333333333335 t_2,46_ + 1.4074074074074074 t_2,47_ + 1.4814814814814814 t_2,48_ + 1.5555555555555554 t_2,49_ + 1.6296296296296298 t_2,50_ + 1.7037037037037037 t_2,51_ + 1.7777777777777777 t_2,52_ + 1.8518518518518516 t_2,53_ + 1.925925925925926 t_2,54_ + 2 t_2,55_ - 1 x_2_ = 0
c7: 1 y_3,1_ + 1 y_3,2_ + 1 y_3,3_ + 1 y_3,4_ + 1 y_3,5_ + 1 y_3,6_ + 1 y_3,7_ + 1 y_3,8_ + 1 y_3,9_ + 1 y_3,10_ + 1 y_3,11_ + 1 y_3,12_ + 1 y_3,13_ + 1 y_3,14_ + 1 y_3,15_ + 1 y_3,16_ + 1 y_3,17_ + 1 y_3,18_ + 1 y_3,19_ + 1 y_3,20_ + 1 y_3,21_ + 1 y_3,22_ + 1 y_3,23_ + 1 y_3,24_ + 1 y_3,25_ + 1 y_3,26_ + 1 y_3,27_ + 1 y_3,28_ + 1 y_3,29_ + 1 y_3,30_ + 1 y_3,31_ + 1 y_3,32_ + 1 y_3,33_ + 1 y_3,34_ + 1 y_3,35_ + 1 y_3,36_ + 1 y_3,37_ + 1 y_3,38_ + 1 y_3,39_ + 1 y_3,40_ + 1 y_3,41_ + 1 y_3,42_ + 1 y_3,43_ + 1 y_3,44_ + 1 y_3,45_ + 1 y_3,46_ + 1 y_3,47_ + 1 y_3,48_ + 1 y_3,49_ + 1 y_3,50_ + 1 y_3,51_ + 1 y_3,52_ + 1 y_3,53_ + 1 y_3,54_ = 1
c8: 1 t_3,1_ + 1 t_3,2_ + 1 t_3,3_ + 1 t_3,4_ + 1 t_3,5_ + 1 t_3,6_ + 1 t_3,7_ + 1 t_3,8_ + 1 t_3,9_ + 1 t_3,10_ + 1 t_3,11_ + 1 t_3,12_ + 1 t_3,13_ + 1 t_3,14_ + 1 t_3,15_ + 1 t_3,16_ + 1 t_3,17_ + 1 t_3,18_ + 1 t_3,19_ + 1 t_3,20_ + 1 t_3,21_ + 1 t_3,22_ + 1 t_3,23_ + 1 t_3,24_ + 1 t_3,25_ + 1 t_3,26_ + 1 t_3,27_ + 1 t_3,28_ + 1 t_3,29_ + 1 t_3,30_ + 1 t_3,31_ + 1 t_3,32_ + 1 t_3,33_ + 1 t_3,34_ + 1 t_3,35_ + 1 t_3,36_ + 1 t_3,37_ + 1 t_3,38_ + 1 t_3,39_ + 1 t_3,40_ + 1 t_3,41_ + 1 t_3,42_ + 1 t_3,43_ + 1 t_3,44_ + 1 t_3,45_ + 1 t_3,46_ + 1 t_3,47_ + 1 t_3,48_ + 1 t_3,49_ + 1 t_3,50_ + 1 t_3,51_ + 1 t_3,52_ + 1 t_3,53_ + 1 t_3,54_ + 1 t_3,55_ = 1
c9: -2 t_3,1_ - 1.925925925925926 t_3,2_ - 1.851851851851852 t_3,3_ - 1.7777777777777777 t_3,4_ - 1.7037037037037037 t_3,5_ - 1.6296296296296298 t_3,6_ - 1.5555555555555554 t_3,7_ - 1.4814814814814814 t_3,8_ - 1.4074074074074074 t_3,9_ - 1.3333333333333335 t_3,10_ - 1.2592592592592595 t_3,11_ - 1.1851851851851851 t_3,12_ - 1.1111111111111112 t_3,13_ - 1.0370370370370372 t_3,14_ - 0.9629629629629629 t_3,15_ - 0.8888888888888888 t_3,16_ - 0.8148148148148149 t_3,17_ - 0.7407407407407406 t_3,18_ - 0.6666666666666669 t_3,19_ - 0.5925925925925926 t_3,20_ - 0.5185185185185186 t_3,21_ - 0.44444444444444453 t_3,22_ - 0.37037037037037035 t_3,23_ - 0.2962962962962963 t_3,24_ - 0.22222222222222232 t_3,25_ - 0.14814814814814803 t_3,26_ - 0.07407407407407429 t_3,27_ + 0.07407407407407396 t_3,29_ + 0.14814814814814836 t_3,30_ + 0.22222222222222232 t_3,31_ + 0.2962962962962963 t_3,32_ + 0.37037037037037024 t_3,33_ + 0.44444444444444464 t_3,34_ + 0.5185185185185186 t_3,35_ + 0.5925925925925926 t_3,36_ + 0.6666666666666665 t_3,37_ + 0.7407407407407409 t_3,38_ + 0.8148148148148149 t_3,39_ + 0.8888888888888888 t_3,40_ + 0.9629629629629628 t_3,41_ + 1.0370370370370372 t_3,42_ + 1.1111111111111112 t_3,43_ + 1.1851851851851851 t_3,44_ + 1.259259259259259 t_3,45_ + 1.3333333333333335 t_3,46_ + 1.4074074074074074 t_3,47_ + 1.4814814814814814 t_3,48_ + 1.5555555555555554 t_3,49_ + 1.6296296296296298 t_3,50_ + 1.7037037037037037 t_3,51_ + 1.7777777777777777 t_3,52_ + 1.8518518518518516 t_3,53_ + 1.925925925925926 t_3,54_ + 2 t_3,55_ - 1 x_3_ = 0
c10: 1 y_4,1_ + 1 y_4,2_ + 1 y_4,3_ + 1 y_4,4_ + 1 y_4,5_ + 1 y_4,6_ + 1 y_4,7_ + 1 y_4,8_ + 1 y_4,9_ + 1 y_4,10_ + 1 y_4,11_ + 1 y_4,12_ + 1 y_4,13_ + 1 y_4,14_ + 1 y_4,15_ + 1 y_4,16_ + 1 y_4,17_ + 1 y_4,18_ + 1 y_4,19_ + 1 y_4,20_ + 1 y_4,21_ + 1 y_4,22_ + 1 y_4,23_ + 1 y_4,24_ + 1 y_4,25_ + 1 y_4,26_ + 1 y_4,27_ + 1 y_4,28_ + 1 y_4,29_ + 1 y_4,30_ + 1 y_4,31_ + 1 y_4,32_ + 1 y_4,33_ + 1 y_4,34_ + 1 y_4,35_ + 1 y_4,36_ + 1 y_4,37_ + 1 y_4,38_ + 1 y_4,39_ + 1 y_4,40_ + 1 y_4,41_ + 1 y_4,42_ + 1 y_4,43_ + 1 y_4,44_ + 1 y_4,45_ + 1 y_4,46_ + 1 y_4,47_ + 1 y_4,48_ + 1 y_4,49_ + 1 y_4,50_ + 1 y_4,51_ + 1 y_4,52_ + 1 y_4,53_ + 1 y_4,54_ = 1
c11: 1 t_4,1_ + 1 t_4,2_ + 1 t_4,3_ + 1 t_4,4_ + 1 t_4,5_ + 1 t_4,6_ + 1 t_4,7_ + 1 t_4,8_ + 1 t_4,9_ + 1 t_4,10_ + 1 t_4,11_ + 1 t_4,12_ + 1 t_4,13_ + 1 t_4,14_ + 1 t_4,15_ + 1 t_4,16_ + 1 t_4,17_ + 1 t_4,18_ + 1 t_4,19_ + 1 t_4,20_ + 1 t_4,21_ + 1 t_4,22_ + 1 t_4,23_ + 1 t_4,24_ + 1 t_4,25_ + 1 t_4,26_ + 1 t_4,27_ + 1 t_4,28_ + 1 t_4,29_ + 1 t_4,30_ + 1 t_4,31_ + 1 t_4,32_ + 1 t_4,33_ + 1 t_4,34_ + 1 t_4,35_ + 1 t_4,36_ + 1 t_4,37_ + 1 t_4,38_ + 1 t_4,39_ + 1 t_4,40_ + 1 t_4,41_ + 1 t_4,42_ + 1 t_4,43_ + 1 t_4,44_ + 1 t_4,45_ + 1 t_4,46_ + 1 t_4,47_ + 1 t_4,48_ + 1 t_4,49_ + 1 t_4,50_ + 1 t_4,51_ + 1 t_4,52_ + 1 t_4,53_ + 1 t_4,54_ + 1 t_4,55_ = 1
c12: -2 t_4,1_ - 1.925925925925926 t_4,2_ - 1.851851851851852 t_4,3_ - 1.7777777777777777 t_4,4_ - 1.7037037037037037 t_4,5_ - 1.6296296296296298 t_4,6_ - 1.5555555555555554 t_4,7_ - 1.4814814814814814 t_4,8_ - 1.4074074074074074 t_4,9_ - 1.3333333333333335 t_4,10_ - 1.2592592592592595 t_4,11_ - 1.1851851851851851 t_4,12_ - 1.1111111111111112 t_4,13_ - 1.0370370370370372 t_4,14_ - 0.9629629629629629 t_4,15_ - 0.8888888888888888 t_4,16_ - 0.8148148148148149 t_4,17_ - 0.7407407407407406 t_4,18_ - 0.6666666666666669 t_4,19_ - 0.5925925925925926 t_4,20_ - 0.5185185185185186 t_4,21_ - 0.44444444444444453 t_4,22_ - 0.37037037037037035 t_4,23_ - 0.2962962962962963 t_4,24_ - 0.22222222222222232 t_4,25_ - 0.14814814814814803 t_4,26_ - 0.07407407407407429 t_4,27_ + 0.07407407407407396 t_4,29_ + 0.14814814814814836 t_4,30_ + 0.22222222222222232 t_4,31_ + 0.2962962962962963 t_4,32_ + 0.37037037037037024 t_4,33_ + 0.44444444444444464 t_4,34_ + 0.5185185185185186 t_4,35_ + 0.5925925925925926 t_4,36_ + 0.6666666666666665 t_4,37_ + 0.7407407407407409 t_4,38_ + 0.8148148148148149 t_4,39_ + 0.8888888888888888 t_4,40_ + 0.9629629629629628 t_4,41_ + 1.0370370370370372 t_4,42_ + 1.1111111111111112 t_4,43_ + 1.1851851851851851 t_4,44_ + 1.259259259259259 t_4,45_ + 1.3333333333333335 t_4,46_ + 1.4074074074074074 t_4,47_ + 1.4814814814814814 t_4,48_ + 1.5555555555555554 t_4,49_ + 1.6296296296296298 t_4,50_ + 1.7037037037037037 t_4,51_ + 1.7777777777777777 t_4,52_ + 1.8518518518518516 t_4,53_ + 1.925925925925926 t_4,54_ + 2 t_4,55_ - 1 x_4_ = 0
c13: 1 y_5,1_ + 1 y_5,2_ + 1 y_5,3_ + 1 y_5,4_ + 1 y_5,5_ + 1 y_5,6_ + 1 y_5,7_ + 1 y_5,8_ + 1 y_5,9_ + 1 y_5,10_ + 1 y_5,11_ + 1 y_5,12_ + 1 y_5,13_ + 1 y_5,14_ + 1 y_5,15_ + 1 y_5,16_ + 1 y_5,17_ + 1 y_5,18_ + 1 y_5,19_ + 1 y_5,20_ + 1 y_5,21_ + 1 y_5,22_ + 1 y_5,23_ + 1 y_5,24_ + 1 y_5,25_ + 1 y_5,26_ + 1 y_5,27_ + 1 y_5,28_ + 1 y_5,29_ + 1 y_5,30_ + 1 y_5,31_ + 1 y_5,32_ + 1 y_5,33_ + 1 y_5,34_ + 1 y_5,35_ + 1 y_5,36_ + 1 y_5,37_ + 1 y_5,38_ + 1 y_5,39_ + 1 y_5,40_ + 1 y_5,41_ + 1 y_5,42_ + 1 y_5,43_ + 1 y_5,44_ + 1 y_5,45_ + 1 y_5,46_ + 1 y_5,47_ + 1 y_5,48_ + 1 y_5,49_ + 1 y_5,50_ + 1 y_5,51_ + 1 y_5,52_ + 1 y_5,53_ + 1 y_5,54_ = 1
c14: 1 t_5,1_ + 1 t_5,2_ + 1 t_5,3_ + 1 t_5,4_ + 1 t_5,5_ + 1 t_5,6_ + 1 t_5,7_ + 1 t_5,8_ + 1 t_5,9_ + 1 t_5,10_ + 1 t_5,11_ + 1 t_5,12_ + 1 t_5,13_ + 1 t_5,14_ + 1 t_5,15_ + 1 t_5,16_ + 1 t_5,17_ + 1 t_5,18_ + 1 t_5,19_ + 1 t_5,20_ + 1 t_5,21_ + 1 t_5,22_ + 1 t_5,23_ + 1 t_5,24_ + 1 t_5,25_ + 1 t_5,26_ + 1 t_5,27_ + 1 t_5,28_ + 1 t_5,29_ + 1 t_5,30_ + 1 t_5,31_ + 1 t_5,32_ + 1 t_5,33_ + 1 t_5,34_ + 1 t_5,35_ + 1 t_5,36_ + 1 t_5,37_ + 1 t_5,38_ + 1 t_5,39_ + 1 t_5,40_ + 1 t_5,41_ + 1 t_5,42_ + 1 t_5,43_ + 1 t_5,44_ + 1 t_5,45_ + 1 t_5,46_ + 1 t_5,47_ + 1 t_5,48_ + 1 t_5,49_ + 1 t_5,50_ + 1 t_5,51_ + 1 t_5,52_ + 1 t_5,53_ + 1 t_5,54_ + 1 t_5,55_ = 1
c15: -2 t_5,1_ - 1.925925925925926 t_5,2_ - 1.851851851851852 t_5,3_ - 1.7777777777777777 t_5,4_ - 1.7037037037037037 t_5,5_ - 1.6296296296296298 t_5,6_ - 1.5555555555555554 t_5,7_ - 1.4814814814814814 t_5,8_ - 1.4074074074074074 t_5,9_ - 1.3333333333333335 t_5,10_ - 1.2592592592592595 t_5,11_ - 1.1851851851851851 t_5,12_ - 1.1111111111111112 t_5,13_ - 1.0370370370370372 t_5,14_ - 0.9629629629629629 t_5,15_ - 0.8888888888888888 t_5,16_ - 0.8148148148148149 t_5,17_ - 0.7407407407407406 t_5,18_ - 0.6666666666666669 t_5,19_ - 0.5925925925925926 t_5,20_ - 0.5185185185185186 t_5,21_ - 0.44444444444444453 t_5,22_ - 0.37037037037037035 t_5,23_ - 0.2962962962962963 t_5,24_ - 0.22222222222222232 t_5,25_ - 0.14814814814814803 t_5,26_ - 0.07407407407407429 t_5,27_ + 0.07407407407407396 t_5,29_ + 0.14814814814814836 t_5,30_ + 0.22222222222222232 t_5,31_ + 0.2962962962962963 t_5,32_ + 0.37037037037037024 t_5,33_ + 0.44444444444444464 t_5,34_ + 0.5185185185185186 t_5,35_ + 0.5925925925925926 t_5,36_ + 0.6666666666666665 t_5,37_ + 0.7407407407407409 t_5,38_ + 0.8148148148148149 t_5,39_ + 0.8888888888888888 t_5,40_ + 0.9629629629629628 t_5,41_ + 1.0370370370370372 t_5,42_ + 1.1111111111111112 t_5,43_ + 1.1851851851851851 t_5,44_ + 1.259259259259259 t_5,45_ + 1.3333333333333335 t_5,46_ + 1.4074074074074074 t_5,47_ + 1.4814814814814814 t_5,48_ + 1.5555555555555554 t_5,49_ + 1.6296296296296298 t_5,50_ + 1.7037037037037037 t_5,51_ + 1.7777777777777777 t_5,52_ + 1.8518518518518516 t_5,53_ + 1.925925925925926 t_5,54_ + 2 t_5,55_ - 1 x_5_ = 0
Bounds
x_1_ <= 2
x_2_ <= 2
x_3_ <= 2
x_4_ <= 2
x_5_ <= 2
t_1,1_ >= 0
t_2,1_ >= 0
t_3,1_ >= 0
t_4,1_ >= 0
t_5,1_ >= 0
t_1,2_ >= 0
t_2,2_ >= 0
t_3,2_ >= 0
t_4,2_ >= 0
t_5,2_ >= 0
t_1,3_ >= 0
t_2,3_ >= 0
t_3,3_ >= 0
t_4,3_ >= 0
t_5,3_ >= 0
t_1,4_ >= 0
t_2,4_ >= 0
t_3,4_ >= 0
t_4,4_ >= 0
t_5,4_ >= 0
t_1,5_ >= 0
t_2,5_ >= 0
t_3,5_ >= 0
t_4,5_ >= 0
t_5,5_ >= 0
t_1,6_ >= 0
t_2,6_ >= 0
t_3,6_ >= 0
t_4,6_ >= 0
t_5,6_ >= 0
t_1,7_ >= 0
t_2,7_ >= 0
t_3,7_ >= 0
t_4,7_ >= 0
t_5,7_ >= 0
t_1,8_ >= 0
t_2,8_ >= 0
t_3,8_ >= 0
t_4,8_ >= 0
t_5,8_ >= 0
t_1,9_ >= 0
t_2,9_ >= 0
t_3,9_ >= 0
t_4,9_ >= 0
t_5,9_ >= 0
t_1,10_ >= 0
t_2,10_ >= 0
t_3,10_ >= 0
t_4,10_ >= 0
t_5,10_ >= 0
t_1,11_ >= 0
t_2,11_ >= 0
t_3,11_ >= 0
t_4,11_ >= 0
t_5,11_ >= 0
t_1,12_ >= 0
t_2,12_ >= 0
t_3,12_ >= 0
t_4,12_ >= 0
t_5,12_ >= 0
t_1,13_ >= 0
t_2,13_ >= 0
t_3,13_ >= 0
t_4,13_ >= 0
t_5,13_ >= 0
t_1,14_ >= 0
t_2,14_ >= 0
t_3,14_ >= 0
t_4,14_ >= 0
t_5,14_ >= 0
t_1,15_ >= 0
t_2,15_ >= 0
t_3,15_ >= 0
t_4,15_ >= 0
t_5,15_ >= 0
t_1,16_ >= 0
t_2,16_ >= 0
t_3,16_ >= 0
t_4,16_ >= 0
t_5,16_ >= 0
t_1,17_ >= 0
t_2,17_ >= 0
t_3,17_ >= 0
t_4,17_ >= 0
t_5,17_ >= 0
t_1,18_ >= 0
t_2,18_ >= 0
t_3,18_ >= 0
t_4,18_ >= 0
t_5,18_ >= 0
t_1,19_ >= 0
t_2,19_ >= 0
t_3,19_ >= 0
t_4,19_ >= 0
t_5,19_ >= 0
t_1,20_ >= 0
t_2,20_ >= 0
t_3,20_ >= 0
t_4,20_ >= 0
t_5,20_ >= 0
t_1,21_ >= 0
t_2,21_ >= 0
t_3,21_ >= 0
t_4,21_ >= 0
t_5,21_ >= 0
t_1,22_ >= 0
t_2,22_ >= 0
t_3,22_ >= 0
t_4,22_ >= 0
t_5,22_ >= 0
t_1,23_ >= 0
t_2,23_ >= 0
t_3,23_ >= 0
t_4,23_ >= 0
t_5,23_ >= 0
t_1,24_ >= 0
t_2,24_ >= 0
t_3,24_ >= 0
t_4,24_ >= 0
t_5,24_ >= 0
t_1,25_ >= 0
t_2,25_ >= 0
t_3,25_ >= 0
t_4,25_ >= 0
t_5,25_ >= 0
t_1,26_ >= 0
t_2,26_ >= 0
t_3,26_ >= 0
t_4,26_ >= 0
t_5,26_ >= 0
t_1,27_ >= 0
t_2,27_ >= 0
t_3,27_ >= 0
t_4,27_ >= 0
t_5,27_ >= 0
t_1,28_ >= 0
t_2,28_ >= 0
t_3,28_ >= 0
t_4,28_ >= 0
t_5,28_ >= 0
t_1,29_ >= 0
t_2,29_ >= 0
t_3,29_ >= 0
t_4,29_ >= 0
t_5,29_ >= 0
t_1,30_ >= 0
t_2,30_ >= 0
t_3,30_ >= 0
t_4,30_ >= 0
t_5,30_ >= 0
t_1,31_ >= 0
t_2,31_ >= 0
t_3,31_ >= 0
t_4,31_ >= 0
t_5,31_ >= 0
t_1,32_ >= 0
t_2,32_ >= 0
t_3,32_ >= 0
t_4,32_ >= 0
t_5,32_ >= 0
t_1,33_ >= 0
t_2,33_ >= 0
t_3,33_ >= 0
t_4,33_ >= 0
t_5,33_ >= 0
t_1,34_ >= 0
t_2,34_ >= 0
t_3,34_ >= 0
t_4,34_ >= 0
t_5,34_ >= 0
t_1,35_ >= 0
t_2,35_ >= 0
t_3,35_ >= 0
t_4,35_ >= 0
t_5,35_ >= 0
t_1,36_ >= 0
t_2,36_ >= 0
t_3,36_ >= 0
t_4,36_ >= 0
t_5,36_ >= 0
t_1,37_ >= 0
t_2,37_ >= 0
t_3,37_ >= 0
t_4,37_ >= 0
t_5,37_ >= 0
t_1,38_ >= 0
t_2,38_ >= 0
t_3,38_ >= 0
t_4,38_ >= 0
t_5,38_ >= 0
t_1,39_ >= 0
t_2,39_ >= 0
t_3,39_ >= 0
t_4,39_ >= 0
t_5,39_ >= 0
t_1,40_ >= 0
t_2,40_ >= 0
t_3,40_ >= 0
t_4,40_ >= 0
t_5,40_ >= 0
t_1,41_ >= 0
t_2,41_ >= 0
t_3,41_ >= 0
t_4,41_ >= 0
t_5,41_ >= 0
t_1,42_ >= 0
t_2,42_ >= 0
t_3,42_ >= 0
t_4,42_ >= 0
t_5,42_ >= 0
t_1,43_ >= 0
t_2,43_ >= 0
t_3,43_ >= 0
t_4,43_ >= 0
t_5,43_ >= 0
t_1,44_ >= 0
t_2,44_ >= 0
t_3,44_ >= 0
t_4,44_ >= 0
t_5,44_ >= 0
t_1,45_ >= 0
t_2,45_ >= 0
t_3,45_ >= 0
t_4,45_ >= 0
t_5,45_ >= 0
t_1,46_ >= 0
t_2,46_ >= 0
t_3,46_ >= 0
t_4,46_ >= 0
t_5,46_ >= 0
t_1,47_ >= 0
t_2,47_ >= 0
t_3,47_ >= 0
t_4,47_ >= 0
t_5,47_ >= 0
t_1,48_ >= 0
t_2,48_ >= 0
t_3,48_ >= 0
t_4,48_ >= 0
t_5,48_ >= 0
t_1,49_ >= 0
t_2,49_ >= 0
t_3,49_ >= 0
t_4,49_ >= 0
t_5,49_ >= 0
t_1,50_ >= 0
t_2,50_ >= 0
t_3,50_ >= 0
t_4,50_ >= 0
t_5,50_ >= 0
t_1,51_ >= 0
t_2,51_ >= 0
t_3,51_ >= 0
t_4,51_ >= 0
t_5,51_ >= 0
t_1,52_ >= 0
t_2,52_ >= 0
t_3,52_ >= 0
t_4,52_ >= 0
t_5,52_ >= 0
t_1,53_ >= 0
t_2,53_ >= 0
t_3,53_ >= 0
t_4,53_ >= 0
t_5,53_ >= 0
t_1,54_ >= 0
t_2,54_ >= 0
t_3,54_ >= 0
t_4,54_ >= 0
t_5,54_ >= 0
t_1,55_ >= 0
t_2,55_ >= 0
t_3,55_ >= 0
t_4,55_ >= 0
t_5,55_ >= 0
x_1_ >= -2
x_2_ >= -2
x_3_ >= -2
x_4_ >= -2
x_5_ >= -2
Binary
y_1,1_
y_2,1_
y_3,1_
y_4,1_
y_5,1_
y_1,2_
y_2,2_
y_3,2_
y_4,2_
y_5,2_
y_1,3_
y_2,3_
y_3,3_
y_4,3_
y_5,3_
y_1,4_
y_2,4_
y_3,4_
y_4,4_
y_5,4_
y_1,5_
y_2,5_
y_3,5_
y_4,5_
y_5,5_
y_1,6_
y_2,6_
y_3,6_
y_4,6_
y_5,6_
y_1,7_
y_2,7_
y_3,7_
y_4,7_
y_5,7_
y_1,8_
y_2,8_
y_3,8_
y_4,8_
y_5,8_
y_1,9_
y_2,9_
y_3,9_
y_4,9_
y_5,9_
y_1,10_
y_2,10_
y_3,10_
y_4,10_
y_5,10_
y_1,11_
y_2,11_
y_3,11_
y_4,11_
y_5,11_
y_1,12_
y_2,12_
y_3,12_
y_4,12_
y_5,12_
y_1,13_
y_2,13_
y_3,13_
y_4,13_
y_5,13_
y_1,14_
y_2,14_
y_3,14_
y_4,14_
y_5,14_
y_1,15_
y_2,15_
y_3,15_
y_4,15_
y_5,15_
y_1,16_
y_2,16_
y_3,16_
y_4,16_
y_5,16_
y_1,17_
y_2,17_
y_3,17_
y_4,17_
y_5,17_
y_1,18_
y_2,18_
y_3,18_
y_4,18_
y_5,18_
y_1,19_
y_2,19_
y_3,19_
y_4,19_
y_5,19_
y_1,20_
y_2,20_
y_3,20_
y_4,20_
y_5,20_
y_1,21_
y_2,21_
y_3,21_
y_4,21_
y_5,21_
y_1,22_
y_2,22_
y_3,22_
y_4,22_
y_5,22_
y_1,23_
y_2,23_
y_3,23_
y_4,23_
y_5,23_
y_1,24_
y_2,24_
y_3,24_
y_4,24_
y_5,24_
y_1,25_
y_2,25_
y_3,25_
y_4,25_
y_5,25_
y_1,26_
y_2,26_
y_3,26_
y_4,26_
y_5,26_
y_1,27_
y_2,27_
y_3,27_
y_4,27_
y_5,27_
y_1,28_
y_2,28_
y_3,28_
y_4,28_
y_5,28_
y_1,29_
y_2,29_
y_3,29_
y_4,29_
y_5,29_
y_1,30_
y_2,30_
y_3,30_
y_4,30_
y_5,30_
y_1,31_
y_2,31_
y_3,31_
y_4,31_
y_5,31_
y_1,32_
y_2,32_
y_3,32_
y_4,32_
y_5,32_
y_1,33_
y_2,33_
y_3,33_
y_4,33_
y_5,33_
y_1,34_
y_2,34_
y_3,34_
y_4,34_
y_5,34_
y_1,35_
y_2,35_
y_3,35_
y_4,35_
y_5,35_
y_1,36_
y_2,36_
y_3,36_
y_4,36_
y_5,36_
y_1,37_
y_2,37_
y_3,37_
y_4,37_
y_5,37_
y_1,38_
y_2,38_
y_3,38_
y_4,38_
y_5,38_
y_1,39_
y_2,39_
y_3,39_
y_4,39_
y_5,39_
y_1,40_
y_2,40_
y_3,40_
y_4,40_
y_5,40_
y_1,41_
y_2,41_
y_3,41_
y_4,41_
y_5,41_
y_1,42_
y_2,42_
y_3,42_
y_4,42_
y_5,42_
y_1,43_
y_2,43_
y_3,43_
y_4,43_
y_5,43_
y_1,44_
y_2,44_
y_3,44_
y_4,44_
y_5,44_
y_1,45_
y_2,45_
y_3,45_
y_4,45_
y_5,45_
y_1,46_
y_2,46_
y_3,46_
y_4,46_
y_5,46_
y_1,47_
y_2,47_
y_3,47_
y_4,47_
y_5,47_
y_1,48_
y_2,48_
y_3,48_
y_4,48_
y_5,48_
y_1,49_
y_2,49_
y_3,49_
y_4,49_
y_5,49_
y_1,50_
y_2,50_
y_3,50_
y_4,50_
y_5,50_
y_1,51_
y_2,51_
y_3,51_
y_4,51_
y_5,51_
y_1,52_
y_2,52_
y_3,52_
y_4,52_
y_5,52_
y_1,53_
y_2,53_
y_3,53_
y_4,53_
y_5,53_
y_1,54_
y_2,54_
y_3,54_
y_4,54_
y_5,54_
End
